# Solution for model qis_1000_800_342
# Objective value = 3.0445694940881248e+02
x[0] 1
x[1] 1
x[2] 1
x[3] 1
x[4] 1
x[5] 0
x[6] 0
x[7] 0
x[8] 0
x[9] 0
x[10] 1
x[11] 0
x[12] 0
x[13] 0
x[14] 1
x[15] 1
x[16] 1
x[17] 1
x[18] 1
x[19] 0
x[20] 0
x[21] 0
x[22] 0
x[23] 1
x[24] 1
x[25] 1
x[26] 0
x[27] 1
x[28] 1
x[29] 0
x[30] 0
x[31] 0
x[32] 0
x[33] 0
x[34] 1
x[35] 0
x[36] 1
x[37] 1
x[38] 0
x[39] 1
x[40] 1
x[41] 0
x[42] 1
x[43] 0
x[44] 1
x[45] 0
x[46] 1
x[47] 0
x[48] 1
x[49] 0
x[50] 1
x[51] 1
x[52] 1
x[53] 0
x[54] 1
x[55] 0
x[56] 1
x[57] 1
x[58] 0
x[59] 1
x[60] 0
x[61] 1
x[62] 0
x[63] 1
x[64] 0
x[65] 0
x[66] 1
x[67] 1
x[68] 1
x[69] 1
x[70] 0
x[71] 0
x[72] 1
x[73] 1
x[74] 1
x[75] 0
x[76] 0
x[77] 0
x[78] 0
x[79] 0
x[80] 0
x[81] 0
x[82] 0
x[83] 0
x[84] 1
x[85] 0
x[86] 1
x[87] 0
x[88] 0
x[89] 0
x[90] 1
x[91] 1
x[92] 1
x[93] 1
x[94] 1
x[95] 1
x[96] 0
x[97] 0
x[98] 1
x[99] 0
x[100] 0
x[101] 0
x[102] 1
x[103] 0
x[104] 1
x[105] 1
x[106] 1
x[107] 0
x[108] 1
x[109] 0
x[110] 0
x[111] 0
x[112] 0
x[113] 1
x[114] 1
x[115] 1
x[116] 1
x[117] 0
x[118] 1
x[119] 0
x[120] 1
x[121] 1
x[122] 1
x[123] 1
x[124] 0
x[125] 0
x[126] 1
x[127] 1
x[128] 1
x[129] 1
x[130] 1
x[131] 0
x[132] 0
x[133] 1
x[134] 1
x[135] 0
x[136] 0
x[137] 0
x[138] 0
x[139] 0
x[140] 1
x[141] 1
x[142] 1
x[143] 0
x[144] 1
x[145] 1
x[146] 0
x[147] 0
x[148] 0
x[149] 1
x[150] 1
x[151] 1
x[152] 0
x[153] 1
x[154] 0
x[155] 0
x[156] 0
x[157] 1
x[158] 0
x[159] 1
x[160] 1
x[161] 0
x[162] 1
x[163] 0
x[164] 0
x[165] 0
x[166] 1
x[167] 0
x[168] 1
x[169] 1
x[170] 0
x[171] 1
x[172] 0
x[173] 0
x[174] 1
x[175] 0
x[176] 1
x[177] 1
x[178] 1
x[179] 0
x[180] 0
x[181] 0
x[182] 1
x[183] 0
x[184] 0
x[185] 0
x[186] 1
x[187] 0
x[188] 0
x[189] 1
x[190] 0
x[191] 1
x[192] 1
x[193] 0
x[194] 1
x[195] 1
x[196] 0
x[197] 0
x[198] 1
x[199] 0
x[200] 0
x[201] 1
x[202] 0
x[203] 0
x[204] 0
x[205] 1
x[206] 0
x[207] 1
x[208] 0
x[209] 0
x[210] 1
x[211] 0
x[212] 1
x[213] 0
x[214] 0
x[215] 0
x[216] 1
x[217] 1
x[218] 1
x[219] 0
x[220] 1
x[221] 0
x[222] 1
x[223] 1
x[224] 0
x[225] 1
x[226] 0
x[227] 1
x[228] 0
x[229] 0
x[230] 0
x[231] 0
x[232] 0
x[233] 1
x[234] 0
x[235] 0
x[236] 1
x[237] 0
x[238] 1
x[239] 0
x[240] 1
x[241] 0
x[242] 0
x[243] 0
x[244] 1
x[245] 1
x[246] 0
x[247] 1
x[248] 0
x[249] 0
x[250] 0
x[251] 1
x[252] 0
x[253] 1
x[254] 1
x[255] 0
x[256] 0
x[257] 1
x[258] 1
x[259] 0
x[260] 1
x[261] 1
x[262] 0
x[263] 0
x[264] 1
x[265] 0
x[266] 1
x[267] 1
x[268] 0
x[269] 1
x[270] 0
x[271] 0
x[272] 0
x[273] 0
x[274] 0
x[275] 0
x[276] 1
x[277] 1
x[278] 1
x[279] 0
x[280] 0
x[281] 1
x[282] 1
x[283] 0
x[284] 1
x[285] 0
x[286] 0
x[287] 0
x[288] 0
x[289] 1
x[290] 1
x[291] 0
x[292] 1
x[293] 0
x[294] 1
x[295] 0
x[296] 1
x[297] 0
x[298] 1
x[299] 1
x[300] 0
x[301] 1
x[302] 1
x[303] 0
x[304] 0
x[305] 1
x[306] 1
x[307] 0
x[308] 1
x[309] 1
x[310] 0
x[311] 1
x[312] 0
x[313] 0
x[314] 0
x[315] 0
x[316] 1
x[317] 0
x[318] 0
x[319] 1
x[320] 0
x[321] 1
x[322] 1
x[323] 1
x[324] 1
x[325] 1
x[326] 0
x[327] 1
x[328] 1
x[329] 0
x[330] 1
x[331] 1
x[332] 0
x[333] 1
x[334] 1
x[335] 0
x[336] 0
x[337] 1
x[338] 1
x[339] 0
x[340] 1
x[341] 0
x[342] 0
x[343] 1
x[344] 0
x[345] 1
x[346] 0
x[347] 0
x[348] 1
x[349] 0
x[350] 0
x[351] 0
x[352] 1
x[353] 1
x[354] 0
x[355] 0
x[356] 0
x[357] 0
x[358] 1
x[359] 0
x[360] 1
x[361] 0
x[362] 0
x[363] 0
x[364] 0
x[365] 1
x[366] 1
x[367] 0
x[368] 0
x[369] 0
x[370] 0
x[371] 1
x[372] 0
x[373] 0
x[374] 0
x[375] 0
x[376] 0
x[377] 1
x[378] 1
x[379] 0
x[380] 1
x[381] 1
x[382] 0
x[383] 1
x[384] 0
x[385] 1
x[386] 1
x[387] 1
x[388] 1
x[389] 0
x[390] 1
x[391] 1
x[392] 0
x[393] 1
x[394] 1
x[395] 1
x[396] 1
x[397] 0
x[398] 1
x[399] 1
x[400] 1
x[401] 1
x[402] 0
x[403] 0
x[404] 0
x[405] 1
x[406] 0
x[407] 0
x[408] 0
x[409] 0
x[410] 1
x[411] 0
x[412] 0
x[413] 0
x[414] 0
x[415] 0
x[416] 0
x[417] 1
x[418] 0
x[419] 1
x[420] 1
x[421] 0
x[422] 1
x[423] 0
x[424] 0
x[425] 1
x[426] 0
x[427] 0
x[428] 1
x[429] 0
x[430] 0
x[431] 0
x[432] 0
x[433] 1
x[434] 0
x[435] 1
x[436] 1
x[437] 0
x[438] 0
x[439] 0
x[440] 0
x[441] 0
x[442] 1
x[443] 0
x[444] 1
x[445] 1
x[446] 0
x[447] 1
x[448] 1
x[449] 1
x[450] 0
x[451] 0
x[452] 0
x[453] 0
x[454] 1
x[455] 0
x[456] 0
x[457] 1
x[458] 0
x[459] 0
x[460] 1
x[461] 0
x[462] 0
x[463] 1
x[464] 1
x[465] 0
x[466] 0
x[467] 1
x[468] 1
x[469] 0
x[470] 1
x[471] 0
x[472] 1
x[473] 1
x[474] 0
x[475] 1
x[476] 0
x[477] 0
x[478] 1
x[479] 0
x[480] 1
x[481] 0
x[482] 1
x[483] 1
x[484] 1
x[485] 1
x[486] 1
x[487] 1
x[488] 1
x[489] 1
x[490] 1
x[491] 0
x[492] 0
x[493] 1
x[494] 1
x[495] 0
x[496] 0
x[497] 0
x[498] 0
x[499] 1
x[500] 1
x[501] 0
x[502] 0
x[503] 1
x[504] 1
x[505] 0
x[506] 1
x[507] 1
x[508] 1
x[509] 0
x[510] 0
x[511] 0
x[512] 0
x[513] 0
x[514] 1
x[515] 1
x[516] 0
x[517] 0
x[518] 0
x[519] 0
x[520] 0
x[521] 1
x[522] 1
x[523] 1
x[524] 0
x[525] 1
x[526] 0
x[527] 0
x[528] 0
x[529] 0
x[530] 0
x[531] 1
x[532] 0
x[533] 1
x[534] 0
x[535] 1
x[536] 1
x[537] 1
x[538] 0
x[539] 1
x[540] 0
x[541] 0
x[542] 1
x[543] 1
x[544] 0
x[545] 0
x[546] 0
x[547] 1
x[548] 1
x[549] 1
x[550] 0
x[551] 0
x[552] 0
x[553] 0
x[554] 1
x[555] 1
x[556] 1
x[557] 1
x[558] 0
x[559] 1
x[560] 1
x[561] 1
x[562] 0
x[563] 0
x[564] 0
x[565] 1
x[566] 1
x[567] 1
x[568] 1
x[569] 0
x[570] 1
x[571] 0
x[572] 0
x[573] 0
x[574] 1
x[575] 0
x[576] 1
x[577] 1
x[578] 0
x[579] 0
x[580] 1
x[581] 1
x[582] 1
x[583] 0
x[584] 0
x[585] 1
x[586] 0
x[587] 0
x[588] 0
x[589] 0
x[590] 1
x[591] 0
x[592] 0
x[593] 1
x[594] 1
x[595] 0
x[596] 1
x[597] 1
x[598] 1
x[599] 1
x[600] 0
x[601] 0
x[602] 0
x[603] 0
x[604] 1
x[605] 1
x[606] 1
x[607] 1
x[608] 1
x[609] 1
x[610] 0
x[611] 1
x[612] 0
x[613] 0
x[614] 0
x[615] 0
x[616] 1
x[617] 0
x[618] 0
x[619] 1
x[620] 0
x[621] 1
x[622] 1
x[623] 1
x[624] 0
x[625] 1
x[626] 0
x[627] 0
x[628] 0
x[629] 0
x[630] 1
x[631] 1
x[632] 1
x[633] 0
x[634] 0
x[635] 1
x[636] 1
x[637] 0
x[638] 1
x[639] 1
x[640] 1
x[641] 1
x[642] 0
x[643] 1
x[644] 1
x[645] 1
x[646] 0
x[647] 1
x[648] 0
x[649] 0
x[650] 1
x[651] 1
x[652] 1
x[653] 0
x[654] 1
x[655] 0
x[656] 1
x[657] 1
x[658] 0
x[659] 1
x[660] 0
x[661] 1
x[662] 1
x[663] 1
x[664] 1
x[665] 1
x[666] 1
x[667] 0
x[668] 1
x[669] 0
x[670] 0
x[671] 0
x[672] 1
x[673] 1
x[674] 1
x[675] 0
x[676] 1
x[677] 1
x[678] 0
x[679] 1
x[680] 0
x[681] 1
x[682] 1
x[683] 1
x[684] 0
x[685] 0
x[686] 1
x[687] 0
x[688] 0
x[689] 0
x[690] 1
x[691] 0
x[692] 0
x[693] 1
x[694] 0
x[695] 1
x[696] 0
x[697] 0
x[698] 0
x[699] 1
x[700] 0
x[701] 1
x[702] 1
x[703] 0
x[704] 0
x[705] 1
x[706] 1
x[707] 0
x[708] 0
x[709] 0
x[710] 0
x[711] 1
x[712] 0
x[713] 0
x[714] 1
x[715] 1
x[716] 0
x[717] 1
x[718] 1
x[719] 1
x[720] 1
x[721] 0
x[722] 0
x[723] 1
x[724] 1
x[725] 1
x[726] 0
x[727] 1
x[728] 1
x[729] 0
x[730] 1
x[731] 0
x[732] 1
x[733] 1
x[734] 1
x[735] 0
x[736] 0
x[737] 0
x[738] 1
x[739] 0
x[740] 0
x[741] 0
x[742] 1
x[743] 1
x[744] 1
x[745] 0
x[746] 1
x[747] 1
x[748] 1
x[749] 0
x[750] 0
x[751] 0
x[752] 1
x[753] 0
x[754] 1
x[755] 0
x[756] 0
x[757] 0
x[758] 0
x[759] 0
x[760] 0
x[761] 0
x[762] 0
x[763] 1
x[764] 0
x[765] 1
x[766] 0
x[767] 1
x[768] 0
x[769] 0
x[770] 0
x[771] 1
x[772] 1
x[773] 1
x[774] 0
x[775] 0
x[776] 0
x[777] 0
x[778] 0
x[779] 0
x[780] 1
x[781] 1
x[782] 1
x[783] 0
x[784] 0
x[785] 1
x[786] 0
x[787] 1
x[788] 1
x[789] 1
x[790] 0
x[791] 1
x[792] 0
x[793] 1
x[794] 0
x[795] 0
x[796] 0
x[797] 1
x[798] 0
x[799] 1
x[800] 1
x[801] 0
x[802] 1
x[803] 1
x[804] 1
x[805] 1
x[806] 0
x[807] 0
x[808] 1
x[809] 1
x[810] 0
x[811] 1
x[812] 0
x[813] 1
x[814] 0
x[815] 1
x[816] 0
x[817] 0
x[818] 1
x[819] 0
x[820] 1
x[821] 0
x[822] 0
x[823] 0
x[824] 1
x[825] 1
x[826] 0
x[827] 1
x[828] 0
x[829] 0
x[830] 1
x[831] 1
x[832] 0
x[833] 1
x[834] 0
x[835] 1
x[836] 0
x[837] 1
x[838] 0
x[839] 0
x[840] 1
x[841] 0
x[842] 1
x[843] 1
x[844] 1
x[845] 1
x[846] 0
x[847] 0
x[848] 0
x[849] 1
x[850] 1
x[851] 1
x[852] 0
x[853] 1
x[854] 0
x[855] 0
x[856] 1
x[857] 0
x[858] 1
x[859] 1
x[860] 0
x[861] 0
x[862] 0
x[863] 1
x[864] 1
x[865] 0
x[866] 1
x[867] 1
x[868] 1
x[869] 0
x[870] 1
x[871] 0
x[872] 0
x[873] 1
x[874] 0
x[875] 1
x[876] 1
x[877] 1
x[878] 1
x[879] 1
x[880] 0
x[881] 0
x[882] 0
x[883] 1
x[884] 0
x[885] 0
x[886] 0
x[887] 1
x[888] 0
x[889] 0
x[890] 0
x[891] 0
x[892] 1
x[893] 1
x[894] 1
x[895] 1
x[896] 0
x[897] 0
x[898] 0
x[899] 1
x[900] 1
x[901] 1
x[902] 1
x[903] 1
x[904] 0
x[905] 1
x[906] 1
x[907] 1
x[908] 0
x[909] 1
x[910] 0
x[911] 0
x[912] 1
x[913] 0
x[914] 0
x[915] 0
x[916] 1
x[917] 1
x[918] 1
x[919] 1
x[920] 1
x[921] 1
x[922] 0
x[923] 0
x[924] 1
x[925] 1
x[926] 0
x[927] 0
x[928] 1
x[929] 1
x[930] 0
x[931] 1
x[932] 1
x[933] 1
x[934] 0
x[935] 0
x[936] 0
x[937] 0
x[938] 0
x[939] 0
x[940] 0
x[941] 1
x[942] 0
x[943] 0
x[944] 0
x[945] 1
x[946] 0
x[947] 0
x[948] 0
x[949] 1
x[950] 0
x[951] 1
x[952] 0
x[953] 1
x[954] 0
x[955] 1
x[956] 0
x[957] 1
x[958] 1
x[959] 1
x[960] 0
x[961] 1
x[962] 1
x[963] 0
x[964] 0
x[965] 0
x[966] 1
x[967] 1
x[968] 0
x[969] 1
x[970] 0
x[971] 0
x[972] 1
x[973] 1
x[974] 0
x[975] 1
x[976] 0
x[977] 0
x[978] 0
x[979] 0
x[980] 0
x[981] 0
x[982] 0
x[983] 0
x[984] 0
x[985] 0
x[986] 0
x[987] 0
x[988] 1
x[989] 1
x[990] 1
x[991] 0
x[992] 1
x[993] 1
x[994] 0
x[995] 0
x[996] 1
x[997] 1
x[998] 0
x[999] 0
